decision_x1=[0,7];
decision_x2=[0,7];
decision_x3=[0,7];
decision_x4=[0,7];
decision_x5=[0,7];
decision_x6=[0,7];
decision_x7=[0,7];
decision_x8=[0,7];
decision_x9=[0,7];
decision_x10=[0,7];
decision_x11=[0,7];
decision_x12=[0,7];
decision_x13=[0,7];
decision_x14=[0,7];
random_y1=[0,7];
random_y2=[0,7];
random_y3=[0,7];
random_y4=[0,7];
random_y5=[0,7];
random_y6=[0,7];
constraint_x2_x1=[
0,0,8.3|
0,1,8.8|
0,2,8.7|
0,3,9.4|
0,4,7.3|
0,5,5.6|
0,6,0.6|
0,7,4.1|
1,0,2.9|
1,1,2.4|
1,2,7.8|
1,3,4|
1,4,5.6|
1,5,1.1|
1,6,1.8|
1,7,6|
2,0,6.9|
2,1,3.7|
2,2,4.5|
2,3,2.5|
2,4,2|
2,5,8.9|
2,6,9.7|
2,7,4|
3,0,1.6|
3,1,5.3|
3,2,2.3|
3,3,5.7|
3,4,6.3|
3,5,0.25|
3,6,8.4|
3,7,0.57|
4,0,5.5|
4,1,5.4|
4,2,6.9|
4,3,9.6|
4,4,7.1|
4,5,2.4|
4,6,8.3|
4,7,3.4|
5,0,9.4|
5,1,0.93|
5,2,6.3|
5,3,2.7|
5,4,5.2|
5,5,8.7|
5,6,0.42|
5,7,1.1|
6,0,0.33|
6,1,1.9|
6,2,3.5|
6,3,8|
6,4,0.16|
6,5,0.18|
6,6,7.1|
6,7,0.59|
7,0,7|
7,1,3.6|
7,2,6|
7,3,0.18|
7,4,9.4|
7,5,1.1|
7,6,1|
7,7,7.2|
];
constraint_x3_x2=[
0,0,5.6|
0,1,9.2|
0,2,7|
0,3,8.3|
0,4,7.8|
0,5,7.2|
0,6,5.5|
0,7,5|
1,0,4.3|
1,1,3.6|
1,2,9.6|
1,3,0.43|
1,4,4.4|
1,5,5.8|
1,6,5.5|
1,7,4.1|
2,0,1.1|
2,1,1|
2,2,1.7|
2,3,7|
2,4,2.6|
2,5,3.6|
2,6,2.4|
2,7,0.63|
3,0,5.5|
3,1,7.7|
3,2,5.9|
3,3,9.3|
3,4,9.5|
3,5,3.6|
3,6,5.3|
3,7,1.3|
4,0,4.9|
4,1,2.9|
4,2,7|
4,3,7.1|
4,4,8.9|
4,5,3.3|
4,6,0.017|
4,7,5.5|
5,0,9.6|
5,1,8.7|
5,2,2.4|
5,3,2.4|
5,4,2.7|
5,5,10|
5,6,9.9|
5,7,1.6|
6,0,9.2|
6,1,8.7|
6,2,1.9|
6,3,4.7|
6,4,8.2|
6,5,3.5|
6,6,1.9|
6,7,5.4|
7,0,2.8|
7,1,1.8|
7,2,7.3|
7,3,4.5|
7,4,4.2|
7,5,8.7|
7,6,2.8|
7,7,6|
];
constraint_x4_x3=[
0,0,8.5|
0,1,8.3|
0,2,9|
0,3,5.2|
0,4,5.8|
0,5,7.9|
0,6,0.76|
0,7,6.5|
1,0,7.6|
1,1,6.2|
1,2,1|
1,3,3.4|
1,4,5.1|
1,5,1.8|
1,6,0.73|
1,7,9.1|
2,0,5.3|
2,1,4|
2,2,8.2|
2,3,7|
2,4,5.2|
2,5,3.8|
2,6,2.7|
2,7,3.2|
3,0,8.9|
3,1,7.7|
3,2,7.7|
3,3,4.9|
3,4,6.4|
3,5,3.9|
3,6,6.5|
3,7,6.4|
4,0,5|
4,1,6|
4,2,3.5|
4,3,1|
4,4,3.3|
4,5,6.3|
4,6,8.6|
4,7,5.3|
5,0,6.9|
5,1,7.2|
5,2,9.1|
5,3,3.5|
5,4,3.6|
5,5,3.6|
5,6,7.8|
5,7,9.3|
6,0,9.2|
6,1,3.2|
6,2,6.5|
6,3,2.2|
6,4,6.5|
6,5,3.5|
6,6,4.1|
6,7,1.5|
7,0,5.2|
7,1,9.9|
7,2,1.2|
7,3,6.8|
7,4,2.7|
7,5,4.1|
7,6,0.18|
7,7,4.4|
];
constraint_x5_x1=[
0,0,7.4|
0,1,2.1|
0,2,5.6|
0,3,3.4|
0,4,8.8|
0,5,0.53|
0,6,8.7|
0,7,4.4|
1,0,3.3|
1,1,1.8|
1,2,5.3|
1,3,3.2|
1,4,4.9|
1,5,0.3|
1,6,6|
1,7,2.5|
2,0,0.29|
2,1,9.2|
2,2,7.1|
2,3,8.2|
2,4,8.4|
2,5,5.4|
2,6,7.5|
2,7,4.9|
3,0,6|
3,1,3.6|
3,2,4.6|
3,3,0.5|
3,4,0.79|
3,5,2.7|
3,6,0.57|
3,7,1.1|
4,0,7.1|
4,1,5.5|
4,2,2.6|
4,3,2.9|
4,4,5.6|
4,5,1.1|
4,6,4.3|
4,7,6.7|
5,0,4.4|
5,1,7.8|
5,2,6.8|
5,3,4.1|
5,4,4|
5,5,6.9|
5,6,3.5|
5,7,5.3|
6,0,9.4|
6,1,6|
6,2,7.7|
6,3,2.8|
6,4,1.7|
6,5,8.6|
6,6,6.4|
6,7,4.2|
7,0,7.8|
7,1,3.1|
7,2,8.8|
7,3,4.3|
7,4,3.7|
7,5,9.3|
7,6,3.1|
7,7,3.2|
];
constraint_x6_x2=[
0,0,5.3|
0,1,4.6|
0,2,7.8|
0,3,7|
0,4,5.5|
0,5,0.13|
0,6,4.6|
0,7,7.2|
1,0,2.7|
1,1,4.4|
1,2,5.7|
1,3,4.5|
1,4,3.9|
1,5,1.8|
1,6,6|
1,7,3.4|
2,0,9.8|
2,1,8.6|
2,2,6.6|
2,3,8.9|
2,4,7.6|
2,5,4.2|
2,6,9.8|
2,7,0.5|
3,0,3.1|
3,1,5.1|
3,2,1.8|
3,3,9.6|
3,4,7.4|
3,5,0.72|
3,6,2.8|
3,7,6.6|
4,0,9.3|
4,1,1.4|
4,2,8.2|
4,3,2|
4,4,9.3|
4,5,3.2|
4,6,0.25|
4,7,3.9|
5,0,5.9|
5,1,8.2|
5,2,2.1|
5,3,0.54|
5,4,5.2|
5,5,2.2|
5,6,5.9|
5,7,0.17|
6,0,0.81|
6,1,5.6|
6,2,2.9|
6,3,7.3|
6,4,9.5|
6,5,2.7|
6,6,4.4|
6,7,8|
7,0,5.1|
7,1,8.1|
7,2,4.3|
7,3,3.9|
7,4,6.2|
7,5,4.3|
7,6,7.8|
7,7,8.7|
];
constraint_x7_x3=[
0,0,7.2|
0,1,6.8|
0,2,7.4|
0,3,0.59|
0,4,7.1|
0,5,8|
0,6,9.7|
0,7,3.9|
1,0,1.9|
1,1,4.6|
1,2,3.1|
1,3,0.89|
1,4,6.3|
1,5,3.2|
1,6,9.9|
1,7,8|
2,0,0.71|
2,1,6.2|
2,2,1.3|
2,3,6.7|
2,4,2.9|
2,5,0.54|
2,6,8|
2,7,1.8|
3,0,6|
3,1,8.6|
3,2,3.6|
3,3,3.8|
3,4,1.1|
3,5,5.8|
3,6,2|
3,7,7|
4,0,6.3|
4,1,3.4|
4,2,3.1|
4,3,2.3|
4,4,9.7|
4,5,8.9|
4,6,1.6|
4,7,3.6|
5,0,9.8|
5,1,5.5|
5,2,8.1|
5,3,7.2|
5,4,2.8|
5,5,8|
5,6,9.1|
5,7,7|
6,0,9.7|
6,1,1.1|
6,2,2.1|
6,3,1.4|
6,4,6.2|
6,5,1.7|
6,6,2.1|
6,7,1.5|
7,0,3.6|
7,1,4.9|
7,2,4.8|
7,3,0.93|
7,4,9.5|
7,5,8|
7,6,7|
7,7,8.5|
];
constraint_x8_x4=[
0,0,1.7|
0,1,9.8|
0,2,4.6|
0,3,5.1|
0,4,1.4|
0,5,4.4|
0,6,4.4|
0,7,3.9|
1,0,2|
1,1,4.3|
1,2,9.2|
1,3,6.6|
1,4,3.8|
1,5,6.5|
1,6,4.2|
1,7,8.4|
2,0,3.4|
2,1,7.2|
2,2,6.2|
2,3,5.8|
2,4,3.2|
2,5,1.9|
2,6,1.3|
2,7,4.8|
3,0,4.1|
3,1,4.8|
3,2,8.9|
3,3,1.7|
3,4,7.8|
3,5,4.1|
3,6,5|
3,7,0.28|
4,0,2.9|
4,1,7.5|
4,2,7.3|
4,3,9.6|
4,4,8.1|
4,5,6|
4,6,1.8|
4,7,7.1|
5,0,5.9|
5,1,6|
5,2,4.9|
5,3,6.1|
5,4,2.6|
5,5,0.42|
5,6,0.0072|
5,7,4.1|
6,0,9.6|
6,1,1.6|
6,2,0.95|
6,3,3.5|
6,4,3.8|
6,5,2.8|
6,6,0.34|
6,7,5.3|
7,0,9.2|
7,1,8.7|
7,2,1.6|
7,3,8|
7,4,7|
7,5,2.3|
7,6,7.4|
7,7,0.59|
];
constraint_x9_x5=[
0,0,8.5|
0,1,9.1|
0,2,5.3|
0,3,0.7|
0,4,0.17|
0,5,6|
0,6,5.9|
0,7,1.1|
1,0,6|
1,1,0.89|
1,2,7.3|
1,3,9.2|
1,4,2.1|
1,5,3.9|
1,6,7.6|
1,7,3.9|
2,0,1.4|
2,1,8.6|
2,2,4.4|
2,3,6.7|
2,4,2.6|
2,5,6.1|
2,6,5.9|
2,7,0.96|
3,0,5.2|
3,1,5.8|
3,2,5|
3,3,3.7|
3,4,2.8|
3,5,1.4|
3,6,6|
3,7,0.56|
4,0,0.45|
4,1,3.2|
4,2,5.7|
4,3,6.3|
4,4,1.1|
4,5,9.8|
4,6,0.44|
4,7,0.94|
5,0,5.7|
5,1,1.9|
5,2,5.8|
5,3,7.1|
5,4,5.9|
5,5,4.2|
5,6,2.1|
5,7,5.2|
6,0,9.7|
6,1,3.1|
6,2,4.1|
6,3,8|
6,4,2.9|
6,5,9.5|
6,6,4.7|
6,7,3.7|
7,0,0.072|
7,1,8.1|
7,2,1.2|
7,3,0.2|
7,4,0.6|
7,5,5.2|
7,6,6.7|
7,7,2.6|
];
constraint_x10_x6=[
0,0,7.6|
0,1,4.1|
0,2,4.2|
0,3,4.1|
0,4,0.89|
0,5,3.6|
0,6,9.6|
0,7,2.9|
1,0,8.7|
1,1,1.3|
1,2,6.1|
1,3,2.9|
1,4,0.14|
1,5,7.5|
1,6,0.93|
1,7,1.9|
2,0,3.6|
2,1,0.3|
2,2,9.4|
2,3,9.8|
2,4,8.1|
2,5,7.2|
2,6,2|
2,7,4.6|
3,0,3.9|
3,1,1.9|
3,2,1.8|
3,3,8.7|
3,4,8|
3,5,5.1|
3,6,8.7|
3,7,5.5|
4,0,0.24|
4,1,5.3|
4,2,9.5|
4,3,1.8|
4,4,3|
4,5,0.47|
4,6,3.6|
4,7,4.2|
5,0,5.7|
5,1,6.8|
5,2,0.18|
5,3,5.6|
5,4,3.1|
5,5,0.66|
5,6,6.6|
5,7,9.8|
6,0,5.9|
6,1,5.3|
6,2,7.5|
6,3,5.8|
6,4,9.4|
6,5,6.5|
6,6,0.5|
6,7,5.7|
7,0,4.8|
7,1,7.5|
7,2,3|
7,3,7|
7,4,5.1|
7,5,6.8|
7,6,3.1|
7,7,9.6|
];
constraint_x11_x7=[
0,0,0.76|
0,1,9.5|
0,2,9|
0,3,4.1|
0,4,6.9|
0,5,8.3|
0,6,3.8|
0,7,4.1|
1,0,8.1|
1,1,2.6|
1,2,6.3|
1,3,7.2|
1,4,6.4|
1,5,8.6|
1,6,6.5|
1,7,5.2|
2,0,5.6|
2,1,4.7|
2,2,9.3|
2,3,6.8|
2,4,2.4|
2,5,3.4|
2,6,0.071|
2,7,7.2|
3,0,5.7|
3,1,0.61|
3,2,2.4|
3,3,0.62|
3,4,8.4|
3,5,8.6|
3,6,5.6|
3,7,3.6|
4,0,2.2|
4,1,8.9|
4,2,8.5|
4,3,8.2|
4,4,7.4|
4,5,2.2|
4,6,9.9|
4,7,7.3|
5,0,0.73|
5,1,6.8|
5,2,6.8|
5,3,4.1|
5,4,0.83|
5,5,3.3|
5,6,9.8|
5,7,0.58|
6,0,9.4|
6,1,7|
6,2,6.2|
6,3,8.3|
6,4,9.1|
6,5,4.6|
6,6,5.8|
6,7,8.1|
7,0,3|
7,1,1.1|
7,2,7.3|
7,3,8|
7,4,9.6|
7,5,0.51|
7,6,2|
7,7,2.2|
];
constraint_x12_x8=[
0,0,6.2|
0,1,7.1|
0,2,9.4|
0,3,1.8|
0,4,7|
0,5,5.8|
0,6,3.1|
0,7,7.3|
1,0,1.1|
1,1,3.8|
1,2,5.2|
1,3,3.2|
1,4,3.8|
1,5,7|
1,6,9.9|
1,7,1.9|
2,0,6.4|
2,1,4.4|
2,2,9.4|
2,3,5.1|
2,4,7.4|
2,5,3.8|
2,6,3.1|
2,7,5.2|
3,0,5.1|
3,1,5|
3,2,2.3|
3,3,3.5|
3,4,7.6|
3,5,1.2|
3,6,0.026|
3,7,6.5|
4,0,3.8|
4,1,8.8|
4,2,7.5|
4,3,1.1|
4,4,4.6|
4,5,3.9|
4,6,9|
4,7,9.1|
5,0,0.08|
5,1,5.7|
5,2,2.9|
5,3,9.6|
5,4,6.3|
5,5,7.6|
5,6,0.26|
5,7,1.7|
6,0,10|
6,1,6.7|
6,2,0.64|
6,3,2.5|
6,4,0.56|
6,5,7.6|
6,6,1.4|
6,7,0.59|
7,0,7|
7,1,9.6|
7,2,4|
7,3,6.8|
7,4,7.6|
7,5,3.1|
7,6,7.9|
7,7,0.6|
];
constraint_x13_x9=[
0,0,9|
0,1,1.6|
0,2,3.5|
0,3,2.8|
0,4,0.79|
0,5,3.4|
0,6,4.7|
0,7,5.5|
1,0,4.3|
1,1,3|
1,2,0.82|
1,3,7.2|
1,4,6.4|
1,5,7.6|
1,6,1.6|
1,7,8.4|
2,0,1.9|
2,1,6.3|
2,2,4.7|
2,3,7|
2,4,9.2|
2,5,9.6|
2,6,8.8|
2,7,8.1|
3,0,1.7|
3,1,7.4|
3,2,0.48|
3,3,5.1|
3,4,9.8|
3,5,0.014|
3,6,0.85|
3,7,5.1|
4,0,1.8|
4,1,0.17|
4,2,1.2|
4,3,6.4|
4,4,5.5|
4,5,2.5|
4,6,0.43|
4,7,7.1|
5,0,1.4|
5,1,0.52|
5,2,3.3|
5,3,3.3|
5,4,5|
5,5,4.4|
5,6,1.6|
5,7,7|
6,0,1.3|
6,1,8.5|
6,2,9.2|
6,3,8.9|
6,4,2.4|
6,5,2.2|
6,6,9.8|
6,7,6.1|
7,0,7.5|
7,1,9.8|
7,2,9.1|
7,3,3.1|
7,4,1.8|
7,5,8.9|
7,6,0.65|
7,7,6.4|
];
constraint_x14_x10=[
0,0,4|
0,1,5.8|
0,2,5.5|
0,3,0.29|
0,4,0.9|
0,5,5.3|
0,6,6.3|
0,7,10|
1,0,9.7|
1,1,2.3|
1,2,5.2|
1,3,5.9|
1,4,6.2|
1,5,1.1|
1,6,1.9|
1,7,2|
2,0,8.2|
2,1,0.086|
2,2,0.46|
2,3,7.9|
2,4,3.2|
2,5,9.4|
2,6,9.9|
2,7,2|
3,0,2.2|
3,1,2.4|
3,2,3.7|
3,3,9.1|
3,4,0.25|
3,5,1.8|
3,6,2.6|
3,7,9.6|
4,0,0.98|
4,1,8.1|
4,2,6.9|
4,3,8|
4,4,2.2|
4,5,5.1|
4,6,9.4|
4,7,7.1|
5,0,5.8|
5,1,4.9|
5,2,2.3|
5,3,7|
5,4,6.3|
5,5,8.1|
5,6,9.3|
5,7,8.9|
6,0,8.2|
6,1,0.26|
6,2,2.2|
6,3,3.2|
6,4,4.4|
6,5,1.6|
6,6,8.7|
6,7,4.5|
7,0,4.5|
7,1,0.19|
7,2,6.5|
7,3,9|
7,4,8.6|
7,5,5.5|
7,6,7.9|
7,7,9.9|
];
constraint_x1_y1=[
0,0,2.3|
0,1,9.6|
0,2,8.2|
0,3,2.4|
0,4,4.8|
0,5,6.7|
0,6,2.2|
0,7,0.029|
1,0,4.6|
1,1,9.3|
1,2,5.9|
1,3,8.9|
1,4,8.6|
1,5,8.6|
1,6,7.9|
1,7,8.3|
2,0,7.6|
2,1,6.2|
2,2,4.4|
2,3,4.2|
2,4,8.3|
2,5,7.9|
2,6,2.5|
2,7,0.25|
3,0,3.9|
3,1,5.5|
3,2,9.1|
3,3,9.8|
3,4,6.8|
3,5,1.8|
3,6,2.1|
3,7,6.6|
4,0,7.2|
4,1,1.2|
4,2,5.3|
4,3,9.8|
4,4,8.4|
4,5,0.89|
4,6,0.88|
4,7,1.5|
5,0,6.6|
5,1,2.8|
5,2,3.1|
5,3,4.1|
5,4,7.5|
5,5,1.2|
5,6,8.8|
5,7,4.5|
6,0,9.4|
6,1,4.5|
6,2,5|
6,3,6.6|
6,4,5.1|
6,5,6.9|
6,6,8.3|
6,7,9.5|
7,0,9.9|
7,1,8.3|
7,2,7.2|
7,3,2.4|
7,4,0.74|
7,5,4.6|
7,6,8.2|
7,7,3|
];
constraint_x2_y2=[
0,0,4.3|
0,1,6.1|
0,2,6.6|
0,3,2.6|
0,4,9.5|
0,5,0.97|
0,6,4.3|
0,7,6.5|
1,0,1.9|
1,1,1.3|
1,2,2.6|
1,3,8.5|
1,4,6.4|
1,5,9.1|
1,6,1|
1,7,8.1|
2,0,6.6|
2,1,3.7|
2,2,9.1|
2,3,4.3|
2,4,8.8|
2,5,4.8|
2,6,8|
2,7,5.1|
3,0,3.8|
3,1,4.3|
3,2,6.8|
3,3,6.2|
3,4,5.7|
3,5,7.9|
3,6,7.8|
3,7,6.2|
4,0,2.6|
4,1,1.2|
4,2,8.8|
4,3,5.3|
4,4,7.2|
4,5,7.6|
4,6,5.3|
4,7,0.24|
5,0,3.4|
5,1,4.1|
5,2,0.13|
5,3,0.092|
5,4,8.5|
5,5,1.6|
5,6,7.9|
5,7,9|
6,0,7.6|
6,1,1.5|
6,2,4|
6,3,5.6|
6,4,2.4|
6,5,1.8|
6,6,1.9|
6,7,8.3|
7,0,4.3|
7,1,2.4|
7,2,0.27|
7,3,1.1|
7,4,7.3|
7,5,3.9|
7,6,3.4|
7,7,1.6|
];
constraint_x3_y3=[
0,0,0.28|
0,1,0.014|
0,2,7.3|
0,3,7.4|
0,4,4.1|
0,5,0.24|
0,6,6.6|
0,7,8.4|
1,0,5.7|
1,1,4.5|
1,2,4.5|
1,3,0.3|
1,4,4.8|
1,5,2.5|
1,6,9.6|
1,7,6.4|
2,0,4.4|
2,1,7.8|
2,2,5.9|
2,3,2.1|
2,4,3.9|
2,5,8.3|
2,6,6.8|
2,7,7|
3,0,0.23|
3,1,0.28|
3,2,8.2|
3,3,2.9|
3,4,7.3|
3,5,1.5|
3,6,2.6|
3,7,6.1|
4,0,2.2|
4,1,4.2|
4,2,1.1|
4,3,9.8|
4,4,5.7|
4,5,6.4|
4,6,6.6|
4,7,3.5|
5,0,5.9|
5,1,7|
5,2,0.39|
5,3,0.027|
5,4,9.3|
5,5,1.7|
5,6,2.3|
5,7,1.9|
6,0,2.7|
6,1,4.7|
6,2,6|
6,3,8.6|
6,4,2.1|
6,5,1.1|
6,6,4.8|
6,7,8.5|
7,0,5.1|
7,1,7.6|
7,2,1.7|
7,3,5.4|
7,4,5.3|
7,5,2.4|
7,6,6.9|
7,7,9.2|
];
constraint_x4_y4=[
0,0,8.1|
0,1,3.8|
0,2,4.8|
0,3,6.2|
0,4,5.8|
0,5,6.2|
0,6,0.91|
0,7,7|
1,0,7.3|
1,1,3.3|
1,2,5.6|
1,3,7.3|
1,4,7|
1,5,5.3|
1,6,6.5|
1,7,5.5|
2,0,7.7|
2,1,1.3|
2,2,0.96|
2,3,0.21|
2,4,0.096|
2,5,3.6|
2,6,7.6|
2,7,2.8|
3,0,9.6|
3,1,7.4|
3,2,9.4|
3,3,2.1|
3,4,5.9|
3,5,4.3|
3,6,9|
3,7,8.1|
4,0,8.1|
4,1,8.8|
4,2,4.6|
4,3,3.5|
4,4,7.9|
4,5,2.2|
4,6,8.2|
4,7,8.5|
5,0,0.76|
5,1,6.3|
5,2,6|
5,3,6.5|
5,4,2.5|
5,5,5.7|
5,6,9.8|
5,7,8.9|
6,0,4.5|
6,1,1.5|
6,2,0.24|
6,3,9.3|
6,4,1.7|
6,5,2.8|
6,6,5.9|
6,7,1.4|
7,0,5.3|
7,1,3.5|
7,2,8.2|
7,3,5.1|
7,4,6.3|
7,5,0.97|
7,6,2.3|
7,7,6.4|
];
constraint_x5_y5=[
0,0,5.4|
0,1,9.8|
0,2,9.2|
0,3,7.5|
0,4,4.1|
0,5,9|
0,6,5.7|
0,7,0.12|
1,0,4.9|
1,1,3.7|
1,2,4.2|
1,3,9.4|
1,4,5.3|
1,5,8.4|
1,6,1.6|
1,7,7.8|
2,0,4.1|
2,1,3.3|
2,2,4.3|
2,3,9.9|
2,4,3.1|
2,5,8.1|
2,6,1.6|
2,7,2.3|
3,0,2.6|
3,1,3.3|
3,2,8.2|
3,3,8.2|
3,4,4.3|
3,5,5.6|
3,6,9.2|
3,7,5.2|
4,0,6.9|
4,1,5.3|
4,2,3.7|
4,3,1.8|
4,4,8.1|
4,5,5|
4,6,0.019|
4,7,7.1|
5,0,0.22|
5,1,0.22|
5,2,9.7|
5,3,5.9|
5,4,2.5|
5,5,1.2|
5,6,7.9|
5,7,2.9|
6,0,0.86|
6,1,5|
6,2,2.1|
6,3,1.9|
6,4,4.5|
6,5,5.7|
6,6,6.5|
6,7,6|
7,0,2.1|
7,1,3.7|
7,2,1.9|
7,3,0.23|
7,4,9.8|
7,5,4.8|
7,6,5.4|
7,7,6.3|
];
constraint_x6_y6=[
0,0,9.1|
0,1,5.5|
0,2,6.4|
0,3,6.6|
0,4,3.8|
0,5,1.9|
0,6,1.5|
0,7,8.1|
1,0,6.5|
1,1,7.2|
1,2,0.72|
1,3,1.4|
1,4,4.2|
1,5,5|
1,6,6.9|
1,7,1.1|
2,0,6.5|
2,1,0.082|
2,2,5.6|
2,3,2.8|
2,4,2.6|
2,5,1.1|
2,6,3|
2,7,2.3|
3,0,5.1|
3,1,2.2|
3,2,8|
3,3,4.6|
3,4,6.6|
3,5,3.9|
3,6,2|
3,7,1.2|
4,0,7.3|
4,1,3.6|
4,2,7.6|
4,3,0.58|
4,4,5.6|
4,5,0.69|
4,6,3.8|
4,7,7.2|
5,0,2|
5,1,1.8|
5,2,4.8|
5,3,7.6|
5,4,7.3|
5,5,2.1|
5,6,0.98|
5,7,1.3|
6,0,7.1|
6,1,3.7|
6,2,6.6|
6,3,3|
6,4,1.3|
6,5,1.1|
6,6,6.4|
6,7,3.9|
7,0,7.9|
7,1,8.8|
7,2,6.3|
7,3,8.7|
7,4,7.6|
7,5,2|
7,6,0.22|
7,7,1.3|
];
initial_distribution_y1=[0.17,0.17,0.13,0.12,0.092,0.044,0.14,0.13];
initial_distribution_y2=[0.055,0.2,0.11,0.21,0.0083,0.2,0.1,0.12];
initial_distribution_y3=[0.089,0.12,0.16,0.13,0.053,0.19,0.098,0.16];
initial_distribution_y4=[0.0037,0.078,0.17,0.17,0.033,0.2,0.23,0.12];
initial_distribution_y5=[0.19,0.0047,0.29,0.12,0.059,0.3,0.027,0.01];
initial_distribution_y6=[0.16,0.04,0.18,0.046,0.085,0.15,0.2,0.14];
transition_y1=[
0.15,0.045,0.1,0.068,0.21,0.24,0.12,0.062|
0.0057,0.13,0.11,0.2,0.15,0.22,0.16,0.03|
0.12,0.19,0.03,0.19,0.18,0.042,0.18,0.062|
0.17,0.085,0.19,0.04,0.025,0.15,0.13,0.21|
0.051,0.085,0.059,0.16,0.071,0.2,0.19,0.18|
0.15,0.034,0.077,0.032,0.27,0.072,0.12,0.24|
0.019,0.13,0.23,0.011,0.22,0.29,0.078,0.021|
0.075,0.25,0.13,0.085,0.29,0.052,0.097,0.018|
];
transition_y2=[
0.084,0.17,0.14,0.18,0.26,0.017,0.026,0.13|
0.11,0.087,0.14,0.077,0.18,0.17,0.11,0.13|
0.069,0.062,0.087,0.17,0.044,0.074,0.27,0.22|
0.23,0.19,0.0085,0.044,0.18,0.03,0.17,0.15|
0.064,0.086,0.1,0.28,0.042,0.14,0.082,0.2|
0.079,0.18,0.25,0.038,0.046,0.1,0.078,0.22|
0.15,0.16,0.2,0.18,0.015,0.15,0.13,0.0067|
0.17,0.038,0.074,0.071,0.27,0.051,0.2,0.12|
];
transition_y3=[
0.013,0.074,0.23,0.034,0.11,0.16,0.13,0.25|
0.064,0.084,0.11,0.13,0.23,0.21,0.029,0.15|
0.091,0.19,0.2,0.061,0.26,0.007,0.06,0.13|
0.017,0.21,0.17,0.13,0.14,0.16,0.053,0.11|
0.019,0.13,0.064,0.26,0.14,0.28,0.084,0.021|
0.17,0.11,0.13,0.05,0.11,0.18,0.16,0.099|
0.071,0.015,0.03,0.22,0.19,0.14,0.076,0.26|
0.13,0.25,0.085,0.079,0.12,0.13,0.18,0.03|
];
transition_y4=[
0.3,0.1,0.056,0.16,0.14,0.071,0.052,0.11|
0.076,0.28,0.16,0.22,0.025,0.074,0.14,0.015|
0.043,0.096,0.14,0.18,0.19,0.13,0.19,0.035|
0.11,0.19,0.15,0.1,0.041,0.14,0.099,0.18|
0.053,0.2,0.069,0.094,0.14,0.074,0.22,0.15|
0.21,0.1,0.05,0.13,0.17,0.056,0.11,0.16|
0.19,0.11,0.033,0.049,0.12,0.13,0.19,0.18|
0.19,0.015,0.12,0.22,0.13,0.018,0.15,0.16|
];
transition_y5=[
0.0076,0.14,0.24,0.13,0.14,0.19,0.055,0.096|
0.28,0.054,0.063,0.18,0.18,0.16,0.073,0.015|
0.042,0.19,0.037,0.11,0.18,0.18,0.1,0.17|
0.21,0.22,0.086,0.047,0.18,0.069,0.12,0.072|
0.026,0.17,0.13,0.21,0.025,0.11,0.2,0.12|
0.018,0.23,0.024,0.19,0.24,0.13,0.075,0.093|
0.015,0.13,0.06,0.29,0.11,0.1,0.046,0.25|
0.094,0.055,0.063,0.22,0.23,0.033,0.088,0.22|
];
transition_y6=[
0.18,0.17,0.15,0.061,0.14,0.032,0.2,0.076|
0.096,0.1,0.2,0.1,0.13,0.2,0.13,0.042|
0.2,0.16,0.097,0.025,0.12,0.18,0.11,0.11|
0.03,0.071,0.27,0.18,0.0092,0.3,0.012,0.14|
0.11,0.25,0.033,0.1,0.088,0.22,0.16,0.047|
0.11,0.063,0.085,0.18,0.04,0.14,0.19,0.18|
0.22,0.057,0.1,0.1,0.044,0.22,0.18,0.078|
0.075,0.14,0.11,0.13,0.17,0.14,0.16,0.074|
];
